100 1000
12 19
61 53
63 61
78 74
49 98
46 70
44 15
36 59
37 64
66 29
43 98
16 79
14 74
73 85
72 52
72 70
83 84
15 91
83 84
65 75
21 78
49 72
36 5
20 46
22 26
80 95
94 38
3 79
73 28
1 92
91 12
62 37
8 37
58 58
79 94
67 44
53 25
8 3
85 12
82 67
70 2
43 98
22 12
53 2
22 34
14 68
41 68
41 81
77 92
75 16
91 63
7 47
39 96
67 9
33 32
65 24
34 15
16 4
93 97
58 80
67 76
13 15
69 69
41 22
42 85
70 68
40 70
11 85
31 71
90 24
31 64
84 22
61 13
15 28
13 76
46 13
10 93
57 95
31 70
94 80
77 43
67 6
57 36
9 91
75 17
24 94
75 21
56 30
27 69
72 34
5 39
81 33
79 18
53 75
96 36
67 7
60 15
42 34
82 89
34 59
